13940
14968
15878
16549
17067
17493
17780
18003
18175
18261
18370
18414
18451
18478
18511
18520
18527
18535
18541
18547
18555
18559
18561
18562
18564
18565
18566
18568
18569
18571
18573
18574
18575
18576
18576
18578
18578
18579
18580
18580
18580
18580
18580
18581
18581
18581
18582
18582
18583
18584
18585
18585
18585
18585
18585
18585
18585
18585
18585
18585
18585
18585
18585
18585
18585
18585
18585
18585
18585
18585
18585
18585
18586
18586
18586
18586
18587
18587
18588
18588
18588
18588
18588
18588
18588
18588
18588
18588
18588
18588
18588
18588
18588
18588
18588
18588
18588
18588
18588
